158 157 153 156 159 155 160 154 165 164 166 167 163 162 168 169 171 170 172 175 174 173 108 109 110 111 112 114 115 107 542 541 543 544 545 546 547 103 104 105 106 118 77 78 62 79 80 81 86 85 87 88 89 90 92 93 94 97 95 96 98 99 100 102 101 552 553 554 91 46 45 555 556 557 558 559 550 551 548 549 560 561 562 563 564 565 566 478 477 479 480 476 475 474 473 472 471 495 494 518 519 520 521 522 527 526 523 524 525 492 491 490 528 529 530 531 489 532 533 488 534 535 487 486 493 482 481 483 485 484 536 537 539 538 540 176 177 178 180 181 179 182 183 185 184 197 198 199 200 201 202 204 203 208 207 206 205 196 195 194 209 210 211 212 213 214 215 216 217 223 224 222 221 220 218 219 193 192 191 190 226 225 189 227 186 187 188 229 228 230 231 233 232 234 235 236 237 240 239 238 246 247 245 244 243 242 241 300 257 256 248 249 250 251 252 254 253 255 261 260 259 258 262 263 264 265 299 298 297 296 295 294 293 270 269 268 267 266 271 272 273 274 275 292 291 290 289 288 276 277 278 279 282 281 280 287 286 285 284 283 334 335 336 337 338 339 333 332 331 330 340 341 342 343 344 345 346 364 363 362 347 348 349 350 351 415 416 414 413 352 353 354 355 357 358 359 361 360 401 403 402 356 412 411 410 418 417 419 420 421 422 423 426 424 425 382 383 384 385 409 408 407 406 405 404 400 399 397 398 370 369 368 365 367 366 329 328 327 326 325 324 323 322 373 372 371 396 395 394 393 392 391 387 386 388 389 390 381 380 379 378 377 376 375 374 315 314 316 321 320 319 317 318 305 306 304 307 303 301 302 508 507 506 509 510 511 512 513 514 515 516 517 502 503 504 505 308 309 310 313 312 311 451 450 441 440 449 448 447 446 442 439 443 444 445 431 427 428 429 430 432 433 434 435 436 437 438 454 453 452 499 500 501 498 497 496 470 469 468 467 466 465 464 463 462 461 460 459 458 457 456 455 3 2 1 4 0 5 573 571 572 6 7 8 9 10 11 14 15 16 17 18 19 20 568 569 570 567 29 28 27 26 25 24 21 13 12 23 22 31 30 32 33 34 35 36 37 38 40 41 39 42 43 44 47 48 49 50 84 51 52 54 53 55 56 83 82 57 58 59 60 61 63 64 76 75 74 73 119 120 121 117 122 123 71 72 65 66 67 68 70 69 124 125 126 127 116 128 129 130 132 131 113 161 133 134 135 136 137 138 139 140 141 144 143 142 151 150 149 152 148 147 146 145